jobs  (incl. supersource/sink ):	102
RESOURCES
- renewable                 : 2 R
- nonrenewable              : 4 N
- doubly constrained        : 0 D
************************************************************************
PRECEDENCE RELATIONS:
jobnr.    #modes  #successors   successors
1	1	19		2 3 4 6 7 8 9 10 13 14 15 16 18 21 23 25 27 29 31 
2	9	5		33 26 12 11 5 
3	9	11		59 51 48 47 41 38 37 30 24 20 17 
4	9	9		47 43 41 39 35 34 30 19 11 
5	9	13		59 55 54 51 48 47 46 43 38 37 35 34 30 
6	9	11		59 55 53 51 50 47 42 40 35 34 22 
7	9	10		65 55 50 48 46 40 35 34 32 30 
8	9	5		43 41 34 28 11 
9	9	7		59 46 43 40 38 30 19 
10	9	8		54 47 46 43 40 38 34 20 
11	9	11		63 59 57 55 53 50 48 46 44 42 38 
12	9	5		54 43 42 37 20 
13	9	8		65 55 53 45 42 40 37 35 
14	9	12		82 67 65 62 59 54 53 47 46 43 42 40 
15	9	10		65 63 59 57 55 53 52 46 45 36 
16	9	9		65 62 57 55 53 49 45 43 40 
17	9	8		62 56 55 50 49 45 44 33 
18	9	7		65 55 54 46 45 36 35 
19	9	9		63 62 55 53 50 49 45 44 42 
20	9	11		101 71 65 63 62 57 56 53 49 45 44 
21	9	11		101 82 79 71 65 63 53 50 49 44 39 
22	9	10		101 65 62 58 57 52 49 45 43 41 
23	9	10		71 63 62 55 53 52 50 49 46 45 
24	9	8		75 71 62 55 53 52 46 35 
25	9	11		97 82 81 67 62 60 58 50 44 43 42 
26	9	10		101 67 65 62 58 55 54 45 44 42 
27	9	7		101 63 62 53 49 45 42 
28	9	8		71 58 57 54 49 46 45 44 
29	9	8		101 75 65 63 58 54 49 42 
30	9	12		101 97 82 81 75 67 64 63 62 60 53 42 
31	9	8		101 71 63 58 56 52 49 45 
32	9	10		80 79 69 62 60 59 53 52 51 45 
33	9	12		101 97 75 71 70 66 63 60 57 54 53 52 
34	9	9		101 95 80 79 71 63 60 52 45 
35	9	12		101 100 97 96 70 69 66 63 61 58 57 49 
36	9	12		100 96 82 75 74 71 70 66 62 61 56 49 
37	9	8		101 98 97 82 81 66 56 44 
38	9	11		100 82 73 71 70 69 65 64 62 61 49 
39	9	12		98 97 81 80 75 70 69 66 64 60 59 52 
40	9	5		101 97 58 56 44 
41	9	14		100 97 93 81 80 78 74 73 70 68 64 63 61 56 
42	9	7		98 96 71 70 66 56 52 
43	9	10		100 93 74 71 70 68 64 63 61 56 
44	9	10		99 96 95 91 80 75 73 70 69 52 
45	9	14		98 97 93 92 91 82 81 75 74 72 70 68 66 64 
46	9	12		101 97 93 81 80 79 78 77 74 68 64 61 
47	9	6		101 98 96 91 80 52 
48	9	8		100 96 95 79 68 67 61 60 
49	9	8		98 94 81 80 78 68 67 60 
50	9	4		99 90 73 54 
51	9	10		101 100 98 95 94 93 85 77 74 61 
52	9	9		100 94 93 78 77 76 74 68 61 
53	9	6		96 90 88 73 68 58 
54	9	9		95 92 91 87 85 78 72 69 64 
55	9	13		98 94 93 92 90 88 87 86 85 78 77 76 72 
56	9	9		99 95 88 87 85 79 77 76 69 
57	9	8		93 90 88 85 82 79 77 72 
58	9	9		98 95 92 91 89 86 85 77 76 
59	9	7		95 90 89 88 86 76 73 
60	9	9		99 93 91 90 88 87 86 84 83 
61	9	7		92 90 88 87 86 84 72 
62	9	7		92 90 88 87 85 84 76 
63	9	7		98 91 89 88 87 85 83 
64	9	5		96 94 88 86 76 
65	9	5		97 95 86 85 80 
66	9	4		99 88 86 73 
67	9	4		90 85 77 76 
68	9	4		86 85 84 83 
69	9	3		89 86 84 
70	9	3		87 86 85 
71	9	2		86 77 
72	9	2		89 83 
73	9	2		87 85 
74	9	2		90 84 
75	9	2		87 83 
76	9	1		83 
77	9	1		84 
78	9	1		84 
79	9	1		91 
80	9	1		83 
81	9	1		89 
82	9	1		87 
83	9	1		102 
84	9	1		102 
85	9	1		102 
86	9	1		102 
87	9	1		102 
88	9	1		102 
89	9	1		102 
90	9	1		102 
91	9	1		102 
92	9	1		102 
93	9	1		102 
94	9	1		102 
95	9	1		102 
96	9	1		102 
97	9	1		102 
98	9	1		102 
99	9	1		102 
100	9	1		102 
101	9	1		102 
102	1	0		
************************************************************************
REQUESTS/DURATIONS
jobnr.	mode	dur	R1	R2	N1	N2	N3	N4	
------------------------------------------------------------------------
1	1	0	0	0	0	0	0	0	
2	1	5	3	1	11	26	24	9	
	2	9	3	1	9	23	21	7	
	3	10	3	1	7	21	19	6	
	4	13	2	1	6	17	16	5	
	5	14	2	1	6	15	12	5	
	6	17	2	1	4	15	10	5	
	7	18	2	1	4	13	9	3	
	8	19	1	1	3	8	4	2	
	9	24	1	1	1	7	2	2	
3	1	1	4	3	18	30	10	26	
	2	5	4	2	15	29	10	26	
	3	8	4	2	14	27	10	24	
	4	11	4	2	13	26	10	22	
	5	18	4	1	10	26	10	22	
	6	19	4	1	8	25	10	21	
	7	20	4	1	7	23	10	19	
	8	24	4	1	4	23	10	17	
	9	29	4	1	4	21	10	17	
4	1	10	1	2	28	15	8	28	
	2	12	1	2	28	15	7	26	
	3	18	1	2	28	15	7	25	
	4	21	1	2	28	14	7	22	
	5	24	1	2	28	14	7	21	
	6	26	1	2	28	14	7	20	
	7	27	1	2	28	14	7	18	
	8	28	1	2	28	13	7	17	
	9	29	1	2	28	13	7	16	
5	1	2	5	4	6	3	27	21	
	2	5	4	3	5	2	26	18	
	3	11	4	3	5	2	23	16	
	4	12	4	3	5	2	22	14	
	5	14	3	3	5	2	19	12	
	6	16	3	2	5	1	14	9	
	7	17	3	2	5	1	12	6	
	8	27	3	2	5	1	9	5	
	9	29	3	2	5	1	8	2	
6	1	5	3	3	11	25	27	25	
	2	7	2	3	10	25	26	24	
	3	8	2	3	9	24	24	23	
	4	16	2	3	8	23	22	22	
	5	20	1	2	8	22	21	22	
	6	22	1	2	7	22	20	22	
	7	25	1	2	7	22	18	21	
	8	28	1	2	7	21	17	21	
	9	30	1	2	6	20	16	20	
7	1	6	5	5	23	22	23	14	
	2	9	5	4	23	20	23	13	
	3	10	5	4	22	19	23	12	
	4	11	5	4	22	17	23	11	
	5	12	5	3	21	15	23	11	
	6	17	5	3	21	14	23	10	
	7	20	5	3	21	14	23	9	
	8	21	5	2	20	10	23	8	
	9	26	5	2	20	9	23	8	
8	1	2	5	3	13	13	26	20	
	2	4	4	3	12	12	26	19	
	3	12	4	3	11	12	25	19	
	4	21	4	3	9	11	24	18	
	5	22	4	2	9	9	23	18	
	6	23	4	2	7	9	23	17	
	7	26	4	2	4	7	21	17	
	8	29	4	2	3	6	20	16	
	9	30	4	2	2	6	20	16	
9	1	1	4	4	17	20	16	24	
	2	2	4	4	15	19	14	24	
	3	3	4	4	15	19	13	24	
	4	4	3	4	15	19	12	24	
	5	7	2	3	14	19	12	24	
	6	14	2	3	13	19	10	24	
	7	17	2	3	13	19	9	24	
	8	18	1	3	12	19	9	24	
	9	27	1	3	12	19	8	24	
10	1	1	3	2	29	15	28	17	
	2	2	3	2	26	15	27	15	
	3	8	3	2	25	13	26	11	
	4	11	3	2	22	11	26	10	
	5	12	2	1	20	9	24	9	
	6	13	2	1	19	8	24	6	
	7	14	2	1	17	5	23	6	
	8	19	2	1	14	4	21	4	
	9	20	2	1	13	2	20	2	
11	1	5	3	5	11	21	4	27	
	2	7	3	4	10	20	3	26	
	3	10	3	4	10	18	3	25	
	4	14	3	4	9	18	3	21	
	5	15	2	3	9	16	3	19	
	6	16	2	3	8	16	3	18	
	7	24	2	3	7	14	3	15	
	8	27	1	3	7	14	3	13	
	9	29	1	3	7	12	3	12	
12	1	1	3	5	21	28	9	19	
	2	4	2	5	21	27	7	17	
	3	6	2	5	21	26	7	16	
	4	17	2	5	21	26	6	15	
	5	18	2	5	20	25	5	14	
	6	19	2	5	20	25	5	12	
	7	20	2	5	20	24	4	10	
	8	21	2	5	20	24	3	9	
	9	23	2	5	20	24	3	8	
13	1	9	4	4	21	20	3	27	
	2	10	3	4	18	20	3	25	
	3	12	3	4	17	18	3	24	
	4	13	3	4	14	18	3	23	
	5	15	3	4	11	17	3	20	
	6	25	3	4	11	17	3	19	
	7	26	3	4	7	16	3	17	
	8	27	3	4	6	14	3	17	
	9	28	3	4	5	14	3	15	
14	1	2	5	3	26	12	17	18	
	2	4	4	2	26	12	14	16	
	3	9	4	2	26	11	12	14	
	4	15	3	2	26	11	11	12	
	5	16	3	2	26	10	10	12	
	6	17	2	1	26	10	9	9	
	7	18	2	1	26	9	6	9	
	8	19	1	1	26	9	4	5	
	9	25	1	1	26	9	3	4	
15	1	2	3	2	14	26	27	20	
	2	5	2	2	13	25	27	20	
	3	11	2	2	12	25	25	15	
	4	12	2	2	12	23	24	15	
	5	13	1	2	11	23	24	12	
	6	17	1	2	10	22	23	9	
	7	23	1	2	8	20	22	8	
	8	26	1	2	7	19	22	4	
	9	30	1	2	7	18	21	3	
16	1	5	4	4	29	25	20	28	
	2	6	4	4	28	22	17	26	
	3	7	4	4	28	21	16	24	
	4	8	3	4	26	19	15	19	
	5	10	3	4	26	16	12	18	
	6	20	2	4	24	14	11	16	
	7	22	2	4	23	10	10	15	
	8	27	1	4	23	7	7	12	
	9	29	1	4	22	3	7	9	
17	1	2	4	4	19	21	26	18	
	2	4	4	4	19	18	25	17	
	3	6	4	4	18	17	22	16	
	4	7	4	4	18	15	20	15	
	5	11	4	4	17	15	20	11	
	6	22	4	4	16	14	18	10	
	7	25	4	4	16	12	14	9	
	8	26	4	4	16	11	13	7	
	9	28	4	4	15	9	10	6	
18	1	1	2	4	9	24	16	13	
	2	6	1	3	8	23	15	12	
	3	7	1	3	7	22	15	12	
	4	8	1	3	6	22	15	12	
	5	14	1	3	6	21	15	11	
	6	19	1	2	5	19	15	11	
	7	20	1	2	5	18	15	11	
	8	21	1	2	5	16	15	10	
	9	29	1	2	4	16	15	10	
19	1	1	4	3	13	20	20	15	
	2	2	3	2	13	20	16	15	
	3	3	3	2	13	19	16	15	
	4	7	3	2	13	19	12	15	
	5	20	3	1	12	19	12	15	
	6	22	3	1	12	18	8	15	
	7	24	3	1	12	18	8	14	
	8	26	3	1	12	17	4	15	
	9	28	3	1	12	17	2	15	
20	1	2	1	4	20	26	27	27	
	2	3	1	4	19	23	26	25	
	3	6	1	4	19	21	26	23	
	4	8	1	4	19	19	25	21	
	5	13	1	4	18	16	24	20	
	6	21	1	3	18	16	24	17	
	7	24	1	3	18	13	23	17	
	8	25	1	3	18	10	23	14	
	9	30	1	3	18	8	23	11	
21	1	1	5	3	22	22	16	14	
	2	2	4	3	19	22	15	14	
	3	4	4	3	18	22	14	14	
	4	5	4	3	17	22	12	13	
	5	13	4	3	15	22	11	13	
	6	14	3	3	12	22	10	12	
	7	18	3	3	12	22	8	12	
	8	20	3	3	8	22	7	11	
	9	21	3	3	8	22	6	11	
22	1	3	5	5	25	28	13	28	
	2	4	4	4	25	26	13	28	
	3	15	4	4	22	25	13	28	
	4	16	4	3	21	24	13	27	
	5	21	3	2	19	23	13	27	
	6	24	3	2	18	23	12	27	
	7	25	2	1	17	21	12	27	
	8	26	2	1	14	21	12	26	
	9	27	2	1	12	19	12	26	
23	1	6	1	5	24	17	3	20	
	2	8	1	4	23	15	2	16	
	3	17	1	4	23	15	2	14	
	4	18	1	3	21	15	2	11	
	5	22	1	3	19	13	2	9	
	6	23	1	3	18	13	2	9	
	7	26	1	2	16	13	2	6	
	8	28	1	2	16	11	2	4	
	9	29	1	2	14	11	2	1	
24	1	4	3	5	28	15	26	29	
	2	5	2	4	23	14	22	29	
	3	10	2	4	23	11	22	29	
	4	14	2	3	18	10	20	29	
	5	16	2	3	14	9	16	29	
	6	17	1	3	12	7	16	29	
	7	19	1	3	8	6	13	29	
	8	27	1	2	7	5	11	29	
	9	30	1	2	3	3	9	29	
25	1	1	2	3	26	27	9	20	
	2	3	2	2	26	26	8	19	
	3	8	2	2	26	26	7	17	
	4	18	2	2	26	25	7	15	
	5	19	2	1	25	24	6	11	
	6	22	1	1	25	24	4	9	
	7	24	1	1	25	24	4	8	
	8	27	1	1	24	23	3	7	
	9	30	1	1	24	23	1	5	
26	1	3	5	3	25	23	17	21	
	2	4	4	3	23	20	15	21	
	3	5	4	3	23	19	15	21	
	4	6	4	3	22	16	13	21	
	5	15	3	3	19	14	12	21	
	6	18	3	3	18	11	10	21	
	7	20	3	3	16	11	8	21	
	8	22	3	3	16	7	7	21	
	9	30	3	3	15	6	6	21	
27	1	3	3	1	30	22	12	19	
	2	9	3	1	29	22	11	16	
	3	12	3	1	29	21	11	15	
	4	19	3	1	29	20	11	14	
	5	20	3	1	28	20	11	12	
	6	21	3	1	28	19	10	11	
	7	22	3	1	27	19	10	8	
	8	23	3	1	27	18	10	6	
	9	27	3	1	27	18	10	5	
28	1	1	4	4	12	19	22	16	
	2	2	3	3	12	18	20	15	
	3	11	3	3	11	15	20	15	
	4	12	3	3	9	12	19	13	
	5	13	3	3	8	10	19	13	
	6	18	3	3	7	9	18	11	
	7	21	3	3	4	8	17	10	
	8	25	3	3	4	6	16	9	
	9	30	3	3	3	2	16	8	
29	1	1	4	5	25	3	13	17	
	2	2	3	5	25	3	13	16	
	3	7	3	5	24	3	13	13	
	4	18	3	5	23	3	12	11	
	5	19	3	5	22	3	12	9	
	6	20	3	5	22	2	12	8	
	7	21	3	5	21	2	12	6	
	8	22	3	5	19	2	11	5	
	9	24	3	5	19	2	11	4	
30	1	2	3	3	19	28	27	29	
	2	5	2	3	17	27	25	27	
	3	9	2	3	15	27	24	27	
	4	10	2	3	13	27	21	27	
	5	11	2	3	12	26	18	25	
	6	18	1	3	9	26	16	25	
	7	27	1	3	8	26	11	24	
	8	28	1	3	6	26	10	23	
	9	29	1	3	4	26	9	23	
31	1	6	4	1	12	25	26	27	
	2	14	4	1	10	24	24	25	
	3	15	4	1	10	22	23	24	
	4	19	4	1	9	21	21	21	
	5	21	4	1	9	20	19	17	
	6	23	4	1	8	20	17	17	
	7	25	4	1	7	18	17	12	
	8	27	4	1	7	17	14	11	
	9	30	4	1	6	17	14	7	
32	1	2	4	4	13	12	22	27	
	2	7	4	4	12	11	21	25	
	3	11	4	4	12	10	21	21	
	4	14	4	4	12	9	21	18	
	5	19	3	4	12	9	21	15	
	6	21	3	4	12	9	21	12	
	7	25	2	4	12	8	21	10	
	8	27	2	4	12	7	21	7	
	9	28	2	4	12	7	21	3	
33	1	1	4	5	1	26	28	16	
	2	2	4	4	1	23	27	13	
	3	3	4	4	1	23	26	12	
	4	18	4	4	1	21	25	12	
	5	19	3	4	1	17	25	9	
	6	20	3	4	1	16	24	8	
	7	22	2	4	1	14	24	8	
	8	27	2	4	1	10	23	6	
	9	30	2	4	1	8	22	6	
34	1	4	4	3	24	23	27	8	
	2	5	4	3	23	22	26	8	
	3	6	4	3	23	21	25	8	
	4	7	3	3	22	19	24	8	
	5	16	3	3	22	17	23	7	
	6	21	3	3	22	17	21	7	
	7	26	3	3	21	15	20	7	
	8	27	2	3	20	13	19	7	
	9	28	2	3	20	12	19	7	
35	1	5	1	4	20	20	6	19	
	2	9	1	4	18	19	5	17	
	3	17	1	4	15	19	5	17	
	4	18	1	4	14	18	5	16	
	5	22	1	3	13	18	4	15	
	6	25	1	3	11	18	4	15	
	7	27	1	2	10	17	4	14	
	8	28	1	2	7	17	3	14	
	9	29	1	2	6	17	3	13	
36	1	11	3	5	20	14	29	17	
	2	12	2	4	20	13	27	16	
	3	13	2	4	20	13	26	16	
	4	14	2	3	19	11	25	15	
	5	15	1	2	19	10	22	13	
	6	17	1	2	18	10	20	13	
	7	18	1	2	17	8	18	11	
	8	20	1	1	17	7	18	10	
	9	22	1	1	17	6	15	10	
37	1	1	2	2	13	18	27	12	
	2	2	2	2	11	15	26	12	
	3	3	2	2	10	14	25	12	
	4	10	2	2	8	12	24	12	
	5	14	2	2	7	12	22	12	
	6	15	2	2	7	11	20	12	
	7	16	2	2	5	9	20	12	
	8	24	2	2	5	8	19	12	
	9	26	2	2	4	6	18	12	
38	1	1	4	1	25	11	23	21	
	2	2	3	1	24	10	22	19	
	3	3	3	1	24	9	22	17	
	4	14	3	1	24	7	22	14	
	5	19	3	1	24	6	22	12	
	6	20	3	1	24	5	22	11	
	7	21	3	1	24	4	22	9	
	8	25	3	1	24	3	22	8	
	9	26	3	1	24	3	22	7	
39	1	1	2	2	28	13	22	10	
	2	3	2	1	23	13	20	10	
	3	10	2	1	22	12	16	9	
	4	15	2	1	17	11	15	7	
	5	16	2	1	15	10	14	7	
	6	22	2	1	15	9	11	6	
	7	28	2	1	11	7	10	4	
	8	29	2	1	10	7	9	4	
	9	30	2	1	5	5	6	3	
40	1	1	3	3	24	28	18	18	
	2	4	3	3	24	27	18	16	
	3	7	3	3	21	24	18	16	
	4	8	3	2	18	23	18	13	
	5	11	3	2	17	22	17	11	
	6	17	3	2	14	19	17	11	
	7	20	3	1	11	18	17	8	
	8	25	3	1	8	17	16	7	
	9	26	3	1	6	16	16	5	
41	1	1	2	1	10	23	15	26	
	2	3	2	1	9	23	13	26	
	3	4	2	1	9	22	12	24	
	4	8	2	1	7	20	11	24	
	5	11	2	1	7	20	10	23	
	6	20	2	1	6	19	8	22	
	7	23	2	1	5	18	6	21	
	8	26	2	1	3	18	5	20	
	9	29	2	1	3	17	5	20	
42	1	4	4	2	19	7	13	7	
	2	7	4	2	16	7	13	7	
	3	8	4	2	15	6	13	7	
	4	9	4	2	15	5	13	6	
	5	14	4	2	14	5	12	5	
	6	16	4	1	12	5	12	5	
	7	17	4	1	10	4	11	5	
	8	27	4	1	9	3	11	4	
	9	30	4	1	8	3	11	4	
43	1	3	4	1	16	14	18	27	
	2	9	3	1	16	13	16	24	
	3	10	3	1	16	13	13	22	
	4	12	3	1	15	10	12	19	
	5	13	3	1	15	10	10	18	
	6	14	3	1	14	7	8	15	
	7	17	3	1	14	7	6	14	
	8	18	3	1	13	4	5	11	
	9	19	3	1	13	3	3	10	
44	1	1	4	4	25	22	27	14	
	2	6	3	3	23	20	22	12	
	3	7	3	3	23	17	21	12	
	4	11	3	3	19	17	20	11	
	5	12	3	2	18	12	16	9	
	6	13	2	2	16	12	14	8	
	7	18	2	2	16	9	12	7	
	8	25	2	1	12	7	10	6	
	9	29	2	1	12	3	9	5	
45	1	4	2	5	9	25	5	28	
	2	6	1	5	8	25	4	25	
	3	7	1	5	7	25	4	24	
	4	8	1	5	7	25	4	22	
	5	19	1	5	5	25	3	21	
	6	22	1	5	5	25	3	20	
	7	26	1	5	3	25	3	20	
	8	27	1	5	3	25	3	17	
	9	30	1	5	2	25	3	16	
46	1	1	4	3	22	24	13	27	
	2	3	3	2	20	21	12	26	
	3	6	3	2	17	20	10	25	
	4	11	2	2	17	20	9	23	
	5	13	2	2	13	18	8	23	
	6	14	2	2	12	16	6	22	
	7	15	1	2	10	16	4	22	
	8	20	1	2	8	15	4	20	
	9	23	1	2	8	13	2	20	
47	1	4	4	4	26	28	2	13	
	2	10	4	4	24	25	2	12	
	3	12	4	4	23	23	2	12	
	4	14	4	3	22	21	2	11	
	5	15	4	3	19	21	2	11	
	6	16	4	3	18	19	2	10	
	7	23	4	3	15	17	2	10	
	8	24	4	2	15	17	2	9	
	9	25	4	2	13	14	2	9	
48	1	2	5	2	21	26	27	29	
	2	3	4	2	20	23	27	28	
	3	4	4	2	20	22	25	28	
	4	11	4	2	19	22	24	28	
	5	13	4	2	18	19	23	28	
	6	15	4	2	18	19	23	27	
	7	26	4	2	17	18	22	27	
	8	27	4	2	17	16	20	27	
	9	28	4	2	17	15	20	27	
49	1	2	4	1	16	16	18	18	
	2	6	4	1	16	16	18	16	
	3	10	4	1	16	16	16	16	
	4	17	3	1	16	16	15	15	
	5	18	3	1	15	15	15	14	
	6	24	3	1	15	15	14	13	
	7	25	3	1	15	15	12	12	
	8	27	2	1	14	14	11	12	
	9	28	2	1	14	14	10	11	
50	1	2	4	4	21	30	27	30	
	2	15	4	4	20	23	23	30	
	3	17	4	4	20	20	22	30	
	4	18	4	4	20	19	20	30	
	5	20	4	4	19	17	18	30	
	6	21	4	4	18	12	16	30	
	7	25	4	4	18	9	15	30	
	8	26	4	4	17	5	11	30	
	9	27	4	4	16	4	10	30	
51	1	2	4	2	19	26	23	28	
	2	6	4	2	18	25	20	24	
	3	10	4	2	18	23	19	23	
	4	14	4	2	16	22	19	21	
	5	25	4	2	16	22	18	16	
	6	27	4	2	15	20	17	15	
	7	28	4	2	14	19	16	11	
	8	29	4	2	13	19	14	9	
	9	30	4	2	13	18	13	6	
52	1	1	4	3	21	25	23	19	
	2	6	4	3	18	25	20	17	
	3	11	4	3	18	23	20	14	
	4	15	4	3	15	21	18	12	
	5	20	4	3	11	19	16	12	
	6	21	4	3	11	18	13	9	
	7	26	4	3	7	15	12	8	
	8	27	4	3	6	12	11	7	
	9	28	4	3	3	12	9	6	
53	1	2	2	5	12	14	27	15	
	2	5	2	4	11	12	25	15	
	3	6	2	3	11	11	24	14	
	4	13	2	3	11	10	20	13	
	5	14	1	2	10	10	17	12	
	6	15	1	2	10	9	14	12	
	7	22	1	1	9	7	11	11	
	8	27	1	1	9	6	10	9	
	9	28	1	1	9	6	9	9	
54	1	1	4	4	19	4	15	4	
	2	7	4	4	17	4	15	4	
	3	11	4	4	16	4	15	4	
	4	13	4	4	16	4	14	3	
	5	14	4	3	14	4	14	2	
	6	19	4	3	14	4	13	2	
	7	22	4	3	12	4	12	2	
	8	25	4	3	12	4	12	1	
	9	26	4	3	11	4	12	1	
55	1	3	5	2	23	24	17	12	
	2	5	4	2	23	22	15	11	
	3	7	4	2	23	22	14	10	
	4	8	4	2	23	20	14	9	
	5	9	3	2	23	18	12	9	
	6	19	3	1	23	17	12	7	
	7	24	3	1	23	17	10	6	
	8	26	2	1	23	15	9	6	
	9	29	2	1	23	14	8	5	
56	1	4	4	2	24	28	19	28	
	2	5	4	2	22	26	17	28	
	3	10	4	2	21	26	17	28	
	4	11	4	2	20	26	15	28	
	5	14	3	2	17	25	13	27	
	6	15	3	2	16	24	11	27	
	7	19	3	2	16	23	9	27	
	8	20	3	2	12	22	7	26	
	9	21	3	2	12	22	6	26	
57	1	6	2	5	23	18	24	19	
	2	7	2	4	19	17	23	18	
	3	8	2	4	19	17	22	17	
	4	9	2	4	17	16	19	15	
	5	10	2	4	15	16	16	13	
	6	13	2	4	13	15	16	13	
	7	14	2	4	11	14	12	11	
	8	19	2	4	8	14	12	10	
	9	25	2	4	6	14	10	9	
58	1	1	5	1	21	23	29	18	
	2	6	4	1	21	23	23	18	
	3	14	4	1	17	23	23	18	
	4	15	4	1	15	23	19	18	
	5	16	4	1	14	23	14	17	
	6	21	4	1	13	23	12	17	
	7	22	4	1	9	23	11	17	
	8	26	4	1	9	23	8	17	
	9	27	4	1	6	23	2	17	
59	1	1	3	5	30	18	26	7	
	2	2	3	4	29	16	22	7	
	3	3	3	4	28	15	19	6	
	4	6	3	3	26	12	16	6	
	5	8	3	2	26	9	14	5	
	6	13	3	2	25	9	10	4	
	7	20	3	1	24	7	6	4	
	8	24	3	1	24	5	3	4	
	9	25	3	1	23	1	1	3	
60	1	5	3	2	17	12	22	29	
	2	8	3	2	17	11	20	29	
	3	9	3	2	16	10	19	29	
	4	12	3	2	16	9	18	29	
	5	13	3	2	16	8	18	29	
	6	14	3	1	15	7	17	29	
	7	18	3	1	15	6	15	29	
	8	20	3	1	14	5	14	29	
	9	24	3	1	14	3	13	29	
61	1	2	3	3	20	21	3	13	
	2	6	3	3	19	21	2	11	
	3	7	3	3	19	17	2	11	
	4	8	3	3	19	16	2	9	
	5	10	3	3	19	14	2	9	
	6	16	2	3	19	10	2	9	
	7	21	2	3	19	7	2	8	
	8	24	2	3	19	6	2	7	
	9	27	2	3	19	3	2	6	
62	1	1	3	2	26	11	23	21	
	2	6	2	2	25	10	19	21	
	3	7	2	2	24	9	19	20	
	4	8	2	2	24	8	16	19	
	5	19	2	1	23	8	15	19	
	6	21	1	1	22	7	10	19	
	7	22	1	1	22	7	9	18	
	8	27	1	1	22	6	8	17	
	9	28	1	1	21	6	4	17	
63	1	5	3	3	28	21	15	11	
	2	6	3	3	27	20	13	11	
	3	7	3	3	25	20	13	11	
	4	10	3	3	25	20	13	10	
	5	15	2	3	24	20	12	10	
	6	16	2	2	23	20	11	10	
	7	17	2	2	22	20	11	9	
	8	23	2	2	20	20	9	9	
	9	29	2	2	20	20	9	8	
64	1	1	3	4	24	16	25	9	
	2	4	2	4	23	15	23	8	
	3	5	2	4	19	13	19	7	
	4	6	2	4	18	10	16	7	
	5	11	2	4	15	10	16	6	
	6	12	2	4	13	9	12	5	
	7	13	2	4	11	5	10	5	
	8	25	2	4	8	5	5	5	
	9	26	2	4	4	3	4	4	
65	1	6	5	4	28	14	30	24	
	2	7	4	3	26	14	28	22	
	3	11	4	3	25	13	28	21	
	4	14	3	3	25	11	28	20	
	5	22	2	3	22	10	27	20	
	6	23	2	2	22	9	26	19	
	7	25	2	2	20	9	25	18	
	8	26	1	2	20	7	25	17	
	9	30	1	2	18	7	24	15	
66	1	5	4	4	18	17	18	29	
	2	6	4	4	16	16	17	27	
	3	7	4	4	16	15	16	26	
	4	11	4	4	16	13	15	25	
	5	14	3	3	14	13	14	22	
	6	17	3	3	14	11	14	22	
	7	18	2	3	13	10	13	20	
	8	23	2	3	12	9	11	20	
	9	25	2	3	12	9	11	18	
67	1	2	5	3	22	21	13	5	
	2	8	4	3	22	17	12	4	
	3	10	4	3	20	14	11	4	
	4	14	4	3	17	13	11	3	
	5	20	3	3	16	12	10	3	
	6	22	3	3	13	9	10	3	
	7	26	3	3	11	6	10	2	
	8	28	2	3	7	5	9	2	
	9	30	2	3	5	4	9	2	
68	1	2	5	5	25	27	20	20	
	2	8	4	4	23	27	19	19	
	3	11	4	4	23	27	18	17	
	4	12	4	3	20	27	16	17	
	5	13	4	2	20	27	13	16	
	6	25	4	2	19	27	11	14	
	7	27	4	1	18	27	9	14	
	8	29	4	1	16	27	9	13	
	9	30	4	1	14	27	6	12	
69	1	2	4	3	22	22	23	25	
	2	7	4	2	19	18	23	24	
	3	10	4	2	19	18	22	24	
	4	11	3	2	16	17	22	22	
	5	22	3	2	13	15	21	19	
	6	25	3	2	12	13	21	18	
	7	26	2	2	9	12	20	17	
	8	27	2	2	8	10	20	15	
	9	30	2	2	6	9	20	14	
70	1	3	5	4	19	8	16	21	
	2	4	4	4	19	7	14	20	
	3	10	4	4	18	7	14	19	
	4	14	4	4	18	7	12	18	
	5	20	4	4	17	6	12	18	
	6	23	4	4	16	6	11	18	
	7	25	4	4	16	6	10	17	
	8	26	4	4	15	6	10	15	
	9	27	4	4	14	6	9	15	
71	1	1	3	2	27	17	14	29	
	2	2	3	2	26	16	13	26	
	3	9	3	2	26	16	13	21	
	4	11	2	2	26	16	12	19	
	5	12	2	2	26	15	12	17	
	6	26	2	2	26	15	12	12	
	7	27	2	2	26	15	12	10	
	8	29	1	2	26	15	11	7	
	9	30	1	2	26	15	11	4	
72	1	2	3	5	19	2	20	29	
	2	4	2	4	18	1	18	25	
	3	5	2	4	17	1	18	25	
	4	6	2	4	17	1	17	22	
	5	17	2	3	15	1	17	20	
	6	22	2	3	15	1	16	19	
	7	23	2	2	13	1	16	19	
	8	24	2	2	13	1	15	16	
	9	29	2	2	12	1	14	14	
73	1	1	3	2	10	7	5	24	
	2	2	3	2	10	6	5	22	
	3	3	3	2	10	6	5	21	
	4	4	3	2	10	6	4	20	
	5	5	3	2	10	5	4	16	
	6	9	3	2	10	5	4	14	
	7	20	3	2	10	5	3	14	
	8	21	3	2	10	4	3	11	
	9	29	3	2	10	4	3	9	
74	1	1	4	4	16	15	30	24	
	2	9	3	4	14	14	29	19	
	3	10	3	4	13	14	28	17	
	4	15	3	4	13	13	27	14	
	5	20	3	3	11	13	26	14	
	6	21	3	3	11	13	26	11	
	7	22	3	3	9	12	25	7	
	8	24	3	3	9	11	24	6	
	9	26	3	3	8	11	23	4	
75	1	5	4	4	26	30	20	7	
	2	9	4	3	25	29	18	6	
	3	13	4	3	20	29	18	5	
	4	14	3	3	20	29	18	5	
	5	15	3	2	18	29	16	4	
	6	16	3	2	15	29	16	4	
	7	17	2	1	10	29	16	2	
	8	23	2	1	9	29	14	2	
	9	28	2	1	8	29	14	1	
76	1	3	4	2	26	29	18	29	
	2	4	4	2	25	28	17	28	
	3	7	3	2	24	27	17	27	
	4	8	3	2	24	26	16	25	
	5	16	3	2	23	25	16	25	
	6	17	2	1	22	25	15	24	
	7	21	2	1	21	23	14	22	
	8	25	1	1	21	23	14	22	
	9	29	1	1	20	22	14	21	
77	1	2	2	4	5	27	24	13	
	2	4	2	3	5	23	23	12	
	3	12	2	3	5	20	22	12	
	4	14	2	3	5	17	21	12	
	5	15	2	3	5	14	20	11	
	6	17	2	3	4	11	18	10	
	7	18	2	3	4	9	17	10	
	8	19	2	3	4	7	16	10	
	9	28	2	3	4	1	15	9	
78	1	5	3	5	6	20	27	20	
	2	7	3	4	6	19	25	18	
	3	10	3	4	5	19	24	18	
	4	16	3	4	5	19	23	16	
	5	24	2	4	4	18	22	15	
	6	25	2	4	4	18	21	14	
	7	26	2	4	3	18	20	14	
	8	28	1	4	3	18	20	12	
	9	29	1	4	3	18	19	12	
79	1	2	2	3	7	13	11	30	
	2	5	2	3	5	13	10	29	
	3	8	2	3	5	13	9	28	
	4	13	2	3	5	13	9	26	
	5	18	2	3	3	12	8	26	
	6	21	2	2	3	12	7	26	
	7	24	2	2	2	12	7	24	
	8	28	2	2	1	12	7	23	
	9	30	2	2	1	12	6	23	
80	1	1	3	2	28	27	23	28	
	2	2	3	1	27	23	21	25	
	3	3	3	1	26	22	21	20	
	4	5	3	1	26	21	19	19	
	5	7	3	1	24	18	19	13	
	6	19	3	1	24	17	19	12	
	7	22	3	1	22	14	18	10	
	8	24	3	1	21	12	17	5	
	9	25	3	1	21	9	16	1	
81	1	7	3	3	5	11	23	20	
	2	9	2	2	5	11	23	20	
	3	10	2	2	5	10	23	20	
	4	12	2	2	5	9	23	20	
	5	16	2	1	5	8	23	19	
	6	18	1	1	5	7	23	19	
	7	26	1	1	5	6	23	19	
	8	27	1	1	5	5	23	19	
	9	28	1	1	5	5	23	18	
82	1	1	4	4	26	16	18	21	
	2	2	4	4	23	15	18	21	
	3	3	4	4	21	15	18	21	
	4	7	4	4	20	15	18	21	
	5	8	4	3	19	14	18	21	
	6	11	4	3	18	14	18	21	
	7	17	4	3	16	14	18	21	
	8	23	4	3	15	14	18	21	
	9	29	4	3	13	14	18	21	
83	1	1	4	5	29	23	26	24	
	2	5	4	5	28	22	25	21	
	3	9	4	5	27	19	23	20	
	4	14	3	5	26	18	19	20	
	5	15	3	5	25	16	17	19	
	6	16	3	5	25	14	14	17	
	7	17	2	5	24	12	10	15	
	8	18	2	5	23	10	8	14	
	9	22	2	5	21	8	4	14	
84	1	2	2	3	12	26	18	21	
	2	7	1	2	12	26	17	20	
	3	12	1	2	12	25	16	18	
	4	13	1	2	12	24	15	17	
	5	18	1	2	12	23	13	15	
	6	19	1	2	11	23	11	14	
	7	21	1	2	11	22	9	11	
	8	22	1	2	11	21	7	11	
	9	29	1	2	11	20	5	10	
85	1	7	5	3	24	12	29	20	
	2	11	4	2	22	11	26	20	
	3	12	4	2	22	10	26	20	
	4	13	3	2	20	10	24	20	
	5	16	3	1	19	8	23	20	
	6	18	2	1	17	7	22	20	
	7	24	1	1	15	6	22	20	
	8	25	1	1	14	6	20	20	
	9	30	1	1	11	4	20	20	
86	1	3	3	4	27	28	21	15	
	2	6	2	4	22	25	20	14	
	3	10	2	4	22	23	20	13	
	4	19	2	3	18	22	20	13	
	5	21	1	2	13	20	19	12	
	6	22	1	2	10	19	19	10	
	7	23	1	1	8	17	18	10	
	8	25	1	1	4	13	18	8	
	9	28	1	1	3	12	18	8	
87	1	1	2	4	29	16	12	16	
	2	3	1	4	28	16	11	15	
	3	4	1	4	27	16	11	15	
	4	10	1	3	25	15	10	14	
	5	14	1	3	24	15	10	14	
	6	15	1	3	24	15	9	13	
	7	21	1	2	23	14	9	12	
	8	22	1	2	21	14	9	12	
	9	30	1	2	21	14	8	12	
88	1	1	4	4	4	19	25	19	
	2	2	4	3	4	18	24	18	
	3	12	4	3	4	16	24	18	
	4	13	4	2	4	15	24	18	
	5	15	4	2	4	13	23	18	
	6	26	4	2	4	12	23	17	
	7	28	4	1	4	11	22	17	
	8	29	4	1	4	10	22	17	
	9	30	4	1	4	8	21	17	
89	1	1	4	4	20	6	19	8	
	2	2	3	3	20	6	18	6	
	3	3	3	3	20	6	15	6	
	4	4	2	3	19	6	12	5	
	5	6	2	3	19	5	9	5	
	6	12	2	3	19	5	9	4	
	7	14	1	3	19	4	6	4	
	8	22	1	3	18	4	4	2	
	9	26	1	3	18	4	2	2	
90	1	1	4	4	17	23	23	25	
	2	3	3	4	16	22	22	20	
	3	4	3	4	16	21	21	19	
	4	5	3	4	16	21	21	15	
	5	6	3	4	16	20	19	15	
	6	7	3	3	16	20	19	12	
	7	11	3	3	16	19	19	9	
	8	21	3	3	16	19	18	7	
	9	26	3	3	16	19	17	3	
91	1	2	3	2	25	27	4	11	
	2	4	3	2	22	26	4	10	
	3	5	3	2	21	25	4	10	
	4	10	3	2	20	25	4	10	
	5	11	2	2	19	23	3	9	
	6	13	2	2	16	22	3	9	
	7	20	1	2	14	21	2	9	
	8	22	1	2	12	19	2	9	
	9	28	1	2	12	18	2	9	
92	1	6	5	3	20	17	4	11	
	2	12	4	3	18	16	3	10	
	3	13	4	3	17	14	3	9	
	4	14	3	3	16	13	3	7	
	5	17	3	3	14	10	3	6	
	6	18	3	2	14	7	3	5	
	7	19	2	2	13	5	3	4	
	8	26	2	2	11	5	3	3	
	9	27	2	2	10	1	3	3	
93	1	7	5	3	15	23	28	23	
	2	8	4	3	15	23	28	21	
	3	10	4	3	14	20	26	21	
	4	11	4	2	13	19	26	20	
	5	13	3	2	12	17	25	19	
	6	14	3	2	12	13	23	19	
	7	18	3	1	11	12	22	19	
	8	19	3	1	10	9	21	17	
	9	26	3	1	9	9	21	17	
94	1	1	5	5	30	24	24	21	
	2	3	5	5	29	21	22	18	
	3	4	5	5	28	21	22	17	
	4	7	5	5	28	19	20	15	
	5	9	5	5	27	17	17	13	
	6	12	5	5	27	16	16	11	
	7	14	5	5	26	14	15	9	
	8	23	5	5	26	13	13	8	
	9	30	5	5	25	12	12	6	
95	1	1	4	5	28	9	24	28	
	2	2	3	4	26	8	22	27	
	3	6	3	3	25	8	19	26	
	4	10	3	3	23	7	18	25	
	5	11	3	2	22	7	14	23	
	6	21	3	2	21	6	11	22	
	7	22	3	1	18	5	7	22	
	8	23	3	1	16	5	7	21	
	9	24	3	1	16	5	3	20	
96	1	3	5	5	16	26	25	23	
	2	8	5	4	14	26	25	23	
	3	11	5	4	14	24	25	23	
	4	14	5	4	13	20	25	23	
	5	15	5	3	13	20	25	23	
	6	16	5	3	12	18	25	23	
	7	21	5	3	12	16	25	23	
	8	24	5	2	11	13	25	23	
	9	25	5	2	11	11	25	23	
97	1	6	4	4	18	22	27	27	
	2	7	3	4	16	20	22	25	
	3	8	3	4	15	20	21	25	
	4	9	3	3	14	18	20	24	
	5	10	2	3	11	17	16	23	
	6	11	2	2	10	17	13	20	
	7	14	2	1	10	16	13	19	
	8	22	1	1	8	15	9	19	
	9	27	1	1	8	14	9	18	
98	1	4	3	4	27	15	16	26	
	2	5	3	4	24	15	15	20	
	3	6	3	3	23	11	14	17	
	4	9	3	3	22	11	13	14	
	5	13	2	2	20	9	13	14	
	6	20	2	2	17	6	12	11	
	7	24	2	2	17	6	12	7	
	8	26	2	1	14	2	11	5	
	9	29	2	1	13	1	11	2	
99	1	5	5	2	12	16	10	27	
	2	8	4	2	11	15	10	24	
	3	11	4	2	10	14	9	23	
	4	12	4	2	9	13	7	18	
	5	14	3	2	8	12	6	15	
	6	20	3	2	7	12	5	13	
	7	21	3	2	5	11	4	11	
	8	22	2	2	4	11	3	8	
	9	24	2	2	3	10	3	3	
100	1	1	5	4	22	3	16	29	
	2	4	4	4	19	2	14	28	
	3	7	4	3	17	2	12	28	
	4	9	4	3	17	2	11	27	
	5	16	4	2	15	2	9	27	
	6	17	4	2	12	2	8	27	
	7	23	4	2	12	2	5	26	
	8	27	4	1	9	2	3	26	
	9	30	4	1	9	2	3	25	
101	1	3	4	4	24	21	26	17	
	2	5	4	4	21	20	23	16	
	3	7	4	4	19	20	20	14	
	4	9	4	4	18	20	16	13	
	5	10	4	4	17	20	14	11	
	6	18	4	4	14	20	13	9	
	7	24	4	4	13	20	9	5	
	8	27	4	4	10	20	4	4	
	9	30	4	4	9	20	2	3	
102	1	0	0	0	0	0	0	0	
************************************************************************

 RESOURCE AVAILABILITIES 
	R 1	R 2	N 1	N 2	N 3	N 4
	21	20	1378	1319	1279	1359

************************************************************************
